Geometry = GenFormat {
48  C
C    H    N    O
1      1      6.110000000000000      1.284000000000000     -2.027000000000000
2      2      6.911000000000000      2.007000000000000     -1.822000000000000
3      2      5.574000000000000      1.704000000000000     -2.880000000000000
4      2      6.541000000000000      0.296000000000000     -2.292000000000000
5      1      5.246000000000000      1.179000000000000     -0.790000000000000
6      1      5.714000000000000      1.676000000000000      0.416000000000000
7      2      6.657000000000000      2.168000000000000      0.621000000000000
8      3      4.797000000000000      1.474000000000000      1.404000000000000
9      2      4.833000000000000      1.849000000000000      2.353000000000000
10     1      3.692000000000000      0.879000000000000      0.854000000000000
11     1      3.912000000000000      0.672000000000000     -0.530000000000000
12     1      2.874000000000000     -0.014000000000000     -1.294000000000000
13     2      3.015000000000000     -0.237000000000000     -2.341000000000000
14     1      1.741000000000000     -0.399000000000000     -0.623000000000000
15     2      0.931000000000000     -0.854000000000000     -1.182000000000000
16     1      2.496000000000000      0.574000000000000      1.585000000000000
17     4      2.292000000000000      0.865000000000000      2.794000000000000
18     1      1.506000000000000     -0.075000000000000      0.747000000000000
19     3      0.290000000000000     -0.216000000000000      1.353000000000000
20     2      0.311000000000000      0.167000000000000      2.319000000000000
21     1     -0.855000000000000     -0.689000000000000      0.884000000000000
22     2     -0.109000000000000     -2.617000000000000      1.069000000000000
23     2     -0.875000000000000     -0.968000000000000     -0.162000000000000
24     1     -2.162000000000000     -0.439000000000000      1.582000000000000
25     2     -2.002000000000000     -0.390000000000000      2.664000000000000
26     2     -2.834000000000000     -1.284000000000000      1.396000000000000
27     1     -2.796000000000000      0.834000000000000      1.067000000000000
28     1     -2.387000000000000      2.122000000000000      1.331000000000000
29     2     -1.575000000000000      2.474000000000000      1.948000000000000
30     3     -3.156000000000000      3.021000000000000      0.631000000000000
31     2     -3.062000000000000      4.033000000000000      0.721000000000000
32     1     -4.079000000000000      2.334000000000000     -0.124000000000000
33     1     -3.874000000000000      0.941000000000000      0.123000000000000
34     1     -5.068000000000000      2.789000000000000     -1.000000000000000
35     2     -5.216000000000000      3.853000000000000     -1.170000000000000
36     1     -5.663000000000000      0.460000000000000     -1.413000000000000
37     2     -6.297000000000000     -0.261000000000000     -1.929000000000000
38     1     -5.854000000000000      1.837000000000000     -1.642000000000000
39     2     -6.635000000000000      2.163000000000000     -2.323000000000000
40     1     -4.684000000000000      0.003000000000000     -0.541000000000000
41     2     -4.539000000000000     -1.065000000000000     -0.386000000000000
42     1     -0.246000000000000     -5.549000000000000     -0.286000000000000
43     2     -0.209000000000000     -5.782000000000000     -1.351000000000000
44     2     -1.239000000000000     -5.837000000000000      0.089000000000000
45     2      0.573000000000000     -6.032000000000000      0.279000000000000
46     1     -0.194000000000000     -4.051000000000000     -0.149000000000000
47     4     -0.490000000000000     -3.305000000000000     -1.062000000000000
48     4      0.082000000000000     -3.595000000000000      1.090000000000000
}
Driver = ConjugateGradient {
  MaxForceComponent = 1E-4
  MaxSteps = 0
  LatticeOpt = No
  MovedAtoms = "1:-1"
  OutputPrefix = "geo_end"
  AppendGeometries = No
  ConvergentForcesOnly = Yes
  Constraints = {}
}
Hamiltonian = DFTB {
  MaxAngularMomentum = {
    C = "p"
    H = "s"
    N = "p"
    O = "p"
  }
  SlaterKosterFiles = Type2FileNames {
    Prefix = /panfs/panasas01/chem/ra15808/dftb+_1.2.2_src/mio-1-1/
    Separator = "-"
    Suffix = ".skf"
    LowerCaseTypeName = No
  }
  PolynomialRepulsive = {}
  OldRepulsiveSum = No
  OrbitalResolvedSCC = No
  OldSKInterpolation = No
  Charge = 0.0000000000000000
  SCC = No
  Eigensolver = DivideAndConquer {}
  Filling = Fermi {
    Temperature = 0.0000000000000000
  }
  Dispersion = {}
  ThirdOrder = No
  ThirdOrderFull = No
}
Options = {
  WriteResultsTag = Yes
  MullikenAnalysis = No
  WriteEigenvectors = No
  WriteAutotestTag = No
  WriteDetailedXML = No
  WriteDetailedOut = Yes
  WriteBandOut = Yes
  AtomResolvedEnergies = No
  RandomSeed = 0
  WriteHS = No
  WriteRealHS = No
  MinimiseMemoryUsage = No
  ShowFoldedCoords = No
}
ParserOptions = {
  ParserVersion = 4
  WriteHSDInput = Yes
  WriteXMLInput = No
  StopAfterParsing = No
  IgnoreUnprocessedNodes = No
}
Analysis = {
  ProjectStates = {}
}
