Geometry = GenFormat {
48  C
C    H    N    O
1      1      6.003395995168561      1.132399354192179     -2.055991607356935
2      2      6.906248610189862      1.752995652438083     -2.037728939431760
3      2      5.351299132870144      1.497236156498906     -2.862259334165465
4      2      6.304950545009810      0.107124765294360     -2.320103140355946
5      1      5.309065292194829      1.176098934048107     -0.736784865034512
6      1      5.806374925961255      1.712907326623725      0.455483702906893
7      2      6.771734153327791      2.190831491413217      0.640407659371926
8      3      4.875093038774300      1.573063906308487      1.436227287808945
9      2      4.991462921695984      1.891506190745199      2.404747945508107
10     1      3.759955000794124      0.959379315074291      0.941620403381859
11     1      3.992321938971100      0.684228686825639     -0.439861884159098
12     1      2.981448145629558      0.058738363573066     -1.215482432260770
13     2      3.147304825335723     -0.165620859201515     -2.276128223236123
14     1      1.768686803200578     -0.246877677130804     -0.614031017124332
15     2      0.981446757380036     -0.725848753101981     -1.208535257282568
16     1      2.525747076839353      0.643275580907006      1.537371936180925
17     4      2.280105918282999      0.950295268618615      2.919858698349664
18     1      1.521865659585153      0.056265566694348      0.756301892384984
19     3      0.274046860461841     -0.136440191691868      1.348831114960185
20     2      0.235254693811304      0.120917825946308      2.348878374764768
21     1     -0.805207272614332     -0.525471358187218      0.767003363746829
22     2     -0.180839271834615     -2.553417569706539      1.073930576021333
23     2     -0.787329687260559     -0.774478989041389     -0.302954985756130
24     1     -2.110114442259838     -0.478153596001496      1.484588073855519
25     2     -1.951354660410460     -0.460882155157704      2.577470669366551
26     2     -2.721809087536498     -1.360659013712664      1.234411861802517
27     1     -2.811414446718243      0.775719479769275      1.031165533142671
28     1     -2.438669000186257      2.083321389829329      1.354422027725837
29     2     -1.648145580034512      2.421753894999454      2.028885396221068
30     3     -3.237676726382584      2.958887162671185      0.686965923345056
31     2     -3.172770110429391      3.980737966131342      0.759616046337944
32     1     -4.129981282958350      2.283793039050090     -0.092485571062540
33     1     -3.891484873900215      0.884318933604795      0.089511320970096
34     1     -5.135586609258108      2.762370295150061     -0.954990239724931
35     2     -5.305594374669740      3.836586778251973     -1.092804724572741
36     1     -5.682601591453176      0.428406033892828     -1.452054205763915
37     2     -6.316452839997589     -0.279992695694390     -1.999450331274613
38     1     -5.902639889187874      1.816112981894654     -1.627432474195913
39     2     -6.696948376280989      2.145172249542611     -2.308782464924850
40     1     -4.688809842658468     -0.052602461256920     -0.604960896130109
41     2     -4.532062639681658     -1.131327171762902     -0.480530934176950
42     1     -0.204721908957014     -5.510551182435873     -0.257148347358516
43     2     -0.052585421699848     -5.767059957124590     -1.308913570771578
44     2     -1.169254025290101     -5.925757909821399      0.063603650694990
45     2      0.577728881082317     -5.966507820593985      0.358036290077116
46     1     -0.242947738910177     -4.055061815971485     -0.069300820399850
47     4     -0.469774188962963     -3.228413622100866     -1.085257737786555
48     4     -0.080277358715238     -3.539593897817265      1.105634255381013
}
Driver = ConjugateGradient {
  MaxForceComponent = 1E-4
  MaxSteps = 0
  LatticeOpt = No
  MovedAtoms = "1:-1"
  OutputPrefix = "geo_end"
  AppendGeometries = No
  ConvergentForcesOnly = Yes
  Constraints = {}
}
Hamiltonian = DFTB {
  MaxAngularMomentum = {
    C = "p"
    H = "s"
    N = "p"
    O = "p"
  }
  SlaterKosterFiles = Type2FileNames {
    Prefix = /panfs/panasas01/chem/ra15808/dftb+_1.2.2_src/mio-1-1/
    Separator = "-"
    Suffix = ".skf"
    LowerCaseTypeName = No
  }
  PolynomialRepulsive = {}
  OldRepulsiveSum = No
  OrbitalResolvedSCC = No
  OldSKInterpolation = No
  Charge = 0.0000000000000000
  SCC = No
  Eigensolver = DivideAndConquer {}
  Filling = Fermi {
    Temperature = 0.0000000000000000
  }
  Dispersion = {}
  ThirdOrder = No
  ThirdOrderFull = No
}
Options = {
  WriteResultsTag = Yes
  MullikenAnalysis = No
  WriteEigenvectors = No
  WriteAutotestTag = No
  WriteDetailedXML = No
  WriteDetailedOut = Yes
  WriteBandOut = Yes
  AtomResolvedEnergies = No
  RandomSeed = 0
  WriteHS = No
  WriteRealHS = No
  MinimiseMemoryUsage = No
  ShowFoldedCoords = No
}
ParserOptions = {
  ParserVersion = 4
  WriteHSDInput = Yes
  WriteXMLInput = No
  StopAfterParsing = No
  IgnoreUnprocessedNodes = No
}
Analysis = {
  ProjectStates = {}
}
