Geometry = GenFormat { 
    <<< "geo_end.gen" 
} 
 
Driver = ConjugateGradient{ 
   MaxForceComponent = 1E-4 
   MaxSteps = 0 
   } 
Hamiltonian = DFTB{ 
   MaxAngularMomentum = { 
      C = "p" 
      H = "s" 
      N = "p" 
      O = "p" 
   } 
   SlaterKosterFiles = Type2FileNames{ 
      Prefix = /panfs/panasas01/chem/ra15808/dftb+_1.2.2_src/mio-1-1/ 
      Separator = "-" 
      Suffix = ".skf" 
   } 
} 
Options { 
   WriteResultsTag = Yes  
} 
